; benchmark generated from python API
(set-info :status unknown)
(declare-fun cell_1_3 () Int)
(declare-fun cell_1_6 () Int)
(declare-fun cell_2_6 () Int)
(declare-fun cell_2_8 () Int)
(declare-fun cell_3_3 () Int)
(declare-fun cell_3_9 () Int)
(declare-fun cell_4_4 () Int)
(declare-fun cell_4_5 () Int)
(declare-fun cell_5_1 () Int)
(declare-fun cell_5_8 () Int)
(declare-fun cell_6_1 () Int)
(declare-fun cell_7_4 () Int)
(declare-fun cell_8_2 () Int)
(declare-fun cell_9_7 () Int)
(declare-fun cell_1_1 () Int)
(declare-fun cell_2_1 () Int)
(declare-fun cell_3_1 () Int)
(declare-fun cell_4_1 () Int)
(declare-fun cell_7_1 () Int)
(declare-fun cell_8_1 () Int)
(declare-fun cell_9_1 () Int)
(declare-fun cell_1_2 () Int)
(declare-fun cell_2_2 () Int)
(declare-fun cell_3_2 () Int)
(declare-fun cell_4_2 () Int)
(declare-fun cell_5_2 () Int)
(declare-fun cell_6_2 () Int)
(declare-fun cell_7_2 () Int)
(declare-fun cell_9_2 () Int)
(declare-fun cell_2_3 () Int)
(declare-fun cell_4_3 () Int)
(declare-fun cell_5_3 () Int)
(declare-fun cell_6_3 () Int)
(declare-fun cell_7_3 () Int)
(declare-fun cell_8_3 () Int)
(declare-fun cell_9_3 () Int)
(declare-fun cell_1_4 () Int)
(declare-fun cell_2_4 () Int)
(declare-fun cell_3_4 () Int)
(declare-fun cell_5_4 () Int)
(declare-fun cell_6_4 () Int)
(declare-fun cell_8_4 () Int)
(declare-fun cell_9_4 () Int)
(declare-fun cell_1_5 () Int)
(declare-fun cell_2_5 () Int)
(declare-fun cell_3_5 () Int)
(declare-fun cell_5_5 () Int)
(declare-fun cell_6_5 () Int)
(declare-fun cell_7_5 () Int)
(declare-fun cell_8_5 () Int)
(declare-fun cell_9_5 () Int)
(declare-fun cell_3_6 () Int)
(declare-fun cell_4_6 () Int)
(declare-fun cell_5_6 () Int)
(declare-fun cell_6_6 () Int)
(declare-fun cell_7_6 () Int)
(declare-fun cell_8_6 () Int)
(declare-fun cell_9_6 () Int)
(declare-fun cell_1_7 () Int)
(declare-fun cell_2_7 () Int)
(declare-fun cell_3_7 () Int)
(declare-fun cell_4_7 () Int)
(declare-fun cell_5_7 () Int)
(declare-fun cell_6_7 () Int)
(declare-fun cell_7_7 () Int)
(declare-fun cell_8_7 () Int)
(declare-fun cell_1_8 () Int)
(declare-fun cell_3_8 () Int)
(declare-fun cell_4_8 () Int)
(declare-fun cell_6_8 () Int)
(declare-fun cell_7_8 () Int)
(declare-fun cell_8_8 () Int)
(declare-fun cell_9_8 () Int)
(declare-fun cell_1_9 () Int)
(declare-fun cell_2_9 () Int)
(declare-fun cell_4_9 () Int)
(declare-fun cell_5_9 () Int)
(declare-fun cell_6_9 () Int)
(declare-fun cell_7_9 () Int)
(declare-fun cell_8_9 () Int)
(declare-fun cell_9_9 () Int)
(assert
 (= cell_1_3 1))
(assert
 (= cell_1_6 2))
(assert
 (= cell_2_6 1))
(assert
 (= cell_2_8 2))
(assert
 (= cell_3_3 2))
(assert
 (= cell_3_9 1))
(assert
 (= cell_4_4 2))
(assert
 (= cell_4_5 1))
(assert
 (= cell_5_1 2))
(assert
 (= cell_5_8 1))
(assert
 (= cell_6_1 1))
(assert
 (= cell_7_4 1))
(assert
 (= cell_8_2 1))
(assert
 (= cell_9_7 1))
(assert
 (let (($x2716 (= cell_1_1 9)))
 (let (($x581 (= cell_1_1 8)))
 (let (($x2905 (= cell_1_1 7)))
 (let (($x2139 (= cell_1_1 6)))
 (let (($x848 (= cell_1_1 5)))
 (let (($x1918 (= cell_1_1 4)))
 (let (($x770 (= cell_1_1 3)))
 (let (($x2604 (= cell_1_1 2)))
 (let (($x1158 (= cell_1_1 1)))
 (or $x1158 $x2604 $x770 $x1918 $x848 $x2139 $x2905 $x581 $x2716)))))))))))
(assert
 (let (($x2040 (= cell_2_1 9)))
 (let (($x2450 (= cell_2_1 8)))
 (let (($x2457 (= cell_2_1 7)))
 (let (($x1522 (= cell_2_1 6)))
 (let (($x981 (= cell_2_1 5)))
 (let (($x1847 (= cell_2_1 4)))
 (let (($x2472 (= cell_2_1 3)))
 (let (($x1950 (= cell_2_1 2)))
 (let (($x1272 (= cell_2_1 1)))
 (or $x1272 $x1950 $x2472 $x1847 $x981 $x1522 $x2457 $x2450 $x2040)))))))))))
(assert
 (let (($x585 (= cell_3_1 9)))
 (let (($x1130 (= cell_3_1 8)))
 (let (($x769 (= cell_3_1 7)))
 (let (($x1405 (= cell_3_1 6)))
 (let (($x2962 (= cell_3_1 5)))
 (let (($x1974 (= cell_3_1 4)))
 (let (($x2161 (= cell_3_1 3)))
 (let (($x1437 (= cell_3_1 2)))
 (let (($x319 (= cell_3_1 1)))
 (or $x319 $x1437 $x2161 $x1974 $x2962 $x1405 $x769 $x1130 $x585)))))))))))
(assert
 (let (($x10 (= cell_4_1 9)))
 (let (($x1705 (= cell_4_1 8)))
 (let (($x176 (= cell_4_1 7)))
 (let (($x2190 (= cell_4_1 6)))
 (let (($x919 (= cell_4_1 5)))
 (let (($x2268 (= cell_4_1 4)))
 (let (($x559 (= cell_4_1 3)))
 (let (($x2395 (= cell_4_1 2)))
 (let (($x1619 (= cell_4_1 1)))
 (or $x1619 $x2395 $x559 $x2268 $x919 $x2190 $x176 $x1705 $x10)))))))))))
(assert
 (let (($x1300 (= cell_5_1 2)))
 (or (= cell_5_1 1) $x1300 (= cell_5_1 3) (= cell_5_1 4) (= cell_5_1 5) (= cell_5_1 6) (= cell_5_1 7) (= cell_5_1 8) (= cell_5_1 9))))
(assert
 (let (($x1417 (= cell_6_1 1)))
 (or $x1417 (= cell_6_1 2) (= cell_6_1 3) (= cell_6_1 4) (= cell_6_1 5) (= cell_6_1 6) (= cell_6_1 7) (= cell_6_1 8) (= cell_6_1 9))))
(assert
 (let (($x1335 (= cell_7_1 9)))
 (let (($x1203 (= cell_7_1 8)))
 (let (($x159 (= cell_7_1 7)))
 (let (($x2707 (= cell_7_1 6)))
 (let (($x456 (= cell_7_1 5)))
 (let (($x3134 (= cell_7_1 4)))
 (let (($x539 (= cell_7_1 3)))
 (let (($x1147 (= cell_7_1 2)))
 (let (($x2632 (= cell_7_1 1)))
 (or $x2632 $x1147 $x539 $x3134 $x456 $x2707 $x159 $x1203 $x1335)))))))))))
(assert
 (let (($x2642 (= cell_8_1 9)))
 (let (($x999 (= cell_8_1 8)))
 (let (($x601 (= cell_8_1 7)))
 (let (($x1983 (= cell_8_1 6)))
 (let (($x1208 (= cell_8_1 5)))
 (let (($x289 (= cell_8_1 4)))
 (let (($x932 (= cell_8_1 3)))
 (let (($x1802 (= cell_8_1 2)))
 (let (($x1456 (= cell_8_1 1)))
 (or $x1456 $x1802 $x932 $x289 $x1208 $x1983 $x601 $x999 $x2642)))))))))))
(assert
 (let (($x2253 (= cell_9_1 9)))
 (let (($x3750 (= cell_9_1 8)))
 (let (($x2287 (= cell_9_1 7)))
 (let (($x2701 (= cell_9_1 6)))
 (let (($x2261 (= cell_9_1 5)))
 (let (($x517 (= cell_9_1 4)))
 (let (($x603 (= cell_9_1 3)))
 (let (($x1841 (= cell_9_1 2)))
 (let (($x995 (= cell_9_1 1)))
 (or $x995 $x1841 $x603 $x517 $x2261 $x2701 $x2287 $x3750 $x2253)))))))))))
(assert
 (let (($x1445 (= cell_1_2 9)))
 (let (($x486 (= cell_1_2 8)))
 (let (($x2807 (= cell_1_2 7)))
 (let (($x2172 (= cell_1_2 6)))
 (let (($x2293 (= cell_1_2 5)))
 (let (($x2862 (= cell_1_2 4)))
 (let (($x604 (= cell_1_2 3)))
 (let (($x142 (= cell_1_2 2)))
 (let (($x918 (= cell_1_2 1)))
 (or $x918 $x142 $x604 $x2862 $x2293 $x2172 $x2807 $x486 $x1445)))))))))))
(assert
 (let (($x318 (= cell_2_2 9)))
 (let (($x2292 (= cell_2_2 8)))
 (let (($x975 (= cell_2_2 7)))
 (let (($x353 (= cell_2_2 6)))
 (let (($x2212 (= cell_2_2 5)))
 (let (($x1904 (= cell_2_2 4)))
 (let (($x758 (= cell_2_2 3)))
 (let (($x1313 (= cell_2_2 2)))
 (let (($x2010 (= cell_2_2 1)))
 (or $x2010 $x1313 $x758 $x1904 $x2212 $x353 $x975 $x2292 $x318)))))))))))
(assert
 (let (($x2301 (= cell_3_2 9)))
 (let (($x1258 (= cell_3_2 8)))
 (let (($x181 (= cell_3_2 7)))
 (let (($x2813 (= cell_3_2 6)))
 (let (($x1081 (= cell_3_2 5)))
 (let (($x28 (= cell_3_2 4)))
 (let (($x505 (= cell_3_2 3)))
 (let (($x820 (= cell_3_2 2)))
 (let (($x1879 (= cell_3_2 1)))
 (or $x1879 $x820 $x505 $x28 $x1081 $x2813 $x181 $x1258 $x2301)))))))))))
(assert
 (let (($x569 (= cell_4_2 9)))
 (let (($x2919 (= cell_4_2 8)))
 (let (($x860 (= cell_4_2 7)))
 (let (($x527 (= cell_4_2 6)))
 (let (($x3027 (= cell_4_2 5)))
 (let (($x2012 (= cell_4_2 4)))
 (let (($x835 (= cell_4_2 3)))
 (let (($x3011 (= cell_4_2 2)))
 (let (($x2118 (= cell_4_2 1)))
 (or $x2118 $x3011 $x835 $x2012 $x3027 $x527 $x860 $x2919 $x569)))))))))))
(assert
 (let (($x669 (= cell_5_2 9)))
 (let (($x391 (= cell_5_2 8)))
 (let (($x1314 (= cell_5_2 7)))
 (let (($x400 (= cell_5_2 6)))
 (let (($x1153 (= cell_5_2 5)))
 (let (($x2860 (= cell_5_2 4)))
 (let (($x1602 (= cell_5_2 3)))
 (let (($x2049 (= cell_5_2 2)))
 (let (($x2422 (= cell_5_2 1)))
 (or $x2422 $x2049 $x1602 $x2860 $x1153 $x400 $x1314 $x391 $x669)))))))))))
(assert
 (let (($x1194 (= cell_6_2 9)))
 (let (($x1575 (= cell_6_2 8)))
 (let (($x2918 (= cell_6_2 7)))
 (let (($x928 (= cell_6_2 6)))
 (let (($x1169 (= cell_6_2 5)))
 (let (($x26 (= cell_6_2 4)))
 (let (($x2409 (= cell_6_2 3)))
 (let (($x331 (= cell_6_2 2)))
 (let (($x825 (= cell_6_2 1)))
 (or $x825 $x331 $x2409 $x26 $x1169 $x928 $x2918 $x1575 $x1194)))))))))))
(assert
 (let (($x1905 (= cell_7_2 9)))
 (let (($x2222 (= cell_7_2 8)))
 (let (($x2176 (= cell_7_2 7)))
 (let (($x1097 (= cell_7_2 6)))
 (let (($x1332 (= cell_7_2 5)))
 (let (($x1900 (= cell_7_2 4)))
 (let (($x412 (= cell_7_2 3)))
 (let (($x3196 (= cell_7_2 2)))
 (let (($x2009 (= cell_7_2 1)))
 (or $x2009 $x3196 $x412 $x1900 $x1332 $x1097 $x2176 $x2222 $x1905)))))))))))
(assert
 (let (($x100 (= cell_8_2 1)))
 (or $x100 (= cell_8_2 2) (= cell_8_2 3) (= cell_8_2 4) (= cell_8_2 5) (= cell_8_2 6) (= cell_8_2 7) (= cell_8_2 8) (= cell_8_2 9))))
(assert
 (let (($x1311 (= cell_9_2 9)))
 (let (($x1973 (= cell_9_2 8)))
 (let (($x699 (= cell_9_2 7)))
 (let (($x1779 (= cell_9_2 6)))
 (let (($x2350 (= cell_9_2 5)))
 (let (($x507 (= cell_9_2 4)))
 (let (($x533 (= cell_9_2 3)))
 (let (($x3009 (= cell_9_2 2)))
 (let (($x3217 (= cell_9_2 1)))
 (or $x3217 $x3009 $x533 $x507 $x2350 $x1779 $x699 $x1973 $x1311)))))))))))
(assert
 (let (($x3199 (= cell_1_3 1)))
 (or $x3199 (= cell_1_3 2) (= cell_1_3 3) (= cell_1_3 4) (= cell_1_3 5) (= cell_1_3 6) (= cell_1_3 7) (= cell_1_3 8) (= cell_1_3 9))))
(assert
 (let (($x1694 (= cell_2_3 9)))
 (let (($x626 (= cell_2_3 8)))
 (let (($x3109 (= cell_2_3 7)))
 (let (($x1767 (= cell_2_3 6)))
 (let (($x1354 (= cell_2_3 5)))
 (let (($x312 (= cell_2_3 4)))
 (let (($x2767 (= cell_2_3 3)))
 (let (($x1122 (= cell_2_3 2)))
 (let (($x1191 (= cell_2_3 1)))
 (or $x1191 $x1122 $x2767 $x312 $x1354 $x1767 $x3109 $x626 $x1694)))))))))))
(assert
 (let (($x2201 (= cell_3_3 2)))
 (or (= cell_3_3 1) $x2201 (= cell_3_3 3) (= cell_3_3 4) (= cell_3_3 5) (= cell_3_3 6) (= cell_3_3 7) (= cell_3_3 8) (= cell_3_3 9))))
(assert
 (let (($x818 (= cell_4_3 9)))
 (let (($x421 (= cell_4_3 8)))
 (let (($x2294 (= cell_4_3 7)))
 (let (($x3034 (= cell_4_3 6)))
 (let (($x2628 (= cell_4_3 5)))
 (let (($x2405 (= cell_4_3 4)))
 (let (($x2633 (= cell_4_3 3)))
 (let (($x434 (= cell_4_3 2)))
 (let (($x1605 (= cell_4_3 1)))
 (or $x1605 $x434 $x2633 $x2405 $x2628 $x3034 $x2294 $x421 $x818)))))))))))
(assert
 (let (($x2191 (= cell_5_3 9)))
 (let (($x866 (= cell_5_3 8)))
 (let (($x2061 (= cell_5_3 7)))
 (let (($x946 (= cell_5_3 6)))
 (let (($x698 (= cell_5_3 5)))
 (let (($x2865 (= cell_5_3 4)))
 (let (($x2359 (= cell_5_3 3)))
 (let (($x2840 (= cell_5_3 2)))
 (let (($x1882 (= cell_5_3 1)))
 (or $x1882 $x2840 $x2359 $x2865 $x698 $x946 $x2061 $x866 $x2191)))))))))))
(assert
 (let (($x2345 (= cell_6_3 2)))
 (let (($x3018 (= cell_6_3 1)))
 (or $x3018 $x2345 (= cell_6_3 3) (= cell_6_3 4) (= cell_6_3 5) (= cell_6_3 6) (= cell_6_3 7) (= cell_6_3 8) (= cell_6_3 9)))))
(assert
 (let (($x1592 (= cell_7_3 9)))
 (let (($x970 (= cell_7_3 8)))
 (let (($x1516 (= cell_7_3 7)))
 (let (($x2610 (= cell_7_3 6)))
 (let (($x2308 (= cell_7_3 5)))
 (let (($x379 (= cell_7_3 4)))
 (let (($x1243 (= cell_7_3 3)))
 (let (($x2454 (= cell_7_3 2)))
 (let (($x765 (= cell_7_3 1)))
 (or $x765 $x2454 $x1243 $x379 $x2308 $x2610 $x1516 $x970 $x1592)))))))))))
(assert
 (let (($x1786 (= cell_8_3 2)))
 (let (($x2723 (= cell_8_3 1)))
 (or $x2723 $x1786 (= cell_8_3 3) (= cell_8_3 4) (= cell_8_3 5) (= cell_8_3 6) (= cell_8_3 7) (= cell_8_3 8) (= cell_8_3 9)))))
(assert
 (let (($x1631 (= cell_9_3 9)))
 (let (($x1227 (= cell_9_3 8)))
 (let (($x712 (= cell_9_3 7)))
 (let (($x2069 (= cell_9_3 6)))
 (let (($x2459 (= cell_9_3 5)))
 (let (($x2128 (= cell_9_3 4)))
 (let (($x332 (= cell_9_3 3)))
 (let (($x625 (= cell_9_3 2)))
 (let (($x482 (= cell_9_3 1)))
 (or $x482 $x625 $x332 $x2128 $x2459 $x2069 $x712 $x1227 $x1631)))))))))))
(assert
 (let (($x4049 (= cell_1_4 9)))
 (let (($x1913 (= cell_1_4 8)))
 (let (($x1979 (= cell_1_4 7)))
 (let (($x2188 (= cell_1_4 6)))
 (let (($x65 (= cell_1_4 5)))
 (let (($x1831 (= cell_1_4 4)))
 (let (($x2870 (= cell_1_4 3)))
 (let (($x2564 (= cell_1_4 2)))
 (let (($x2588 (= cell_1_4 1)))
 (or $x2588 $x2564 $x2870 $x1831 $x65 $x2188 $x1979 $x1913 $x4049)))))))))))
(assert
 (let (($x1923 (= cell_2_4 9)))
 (let (($x3193 (= cell_2_4 8)))
 (let (($x3062 (= cell_2_4 7)))
 (let (($x478 (= cell_2_4 6)))
 (let (($x1154 (= cell_2_4 5)))
 (let (($x1953 (= cell_2_4 4)))
 (let (($x377 (= cell_2_4 3)))
 (let (($x1494 (= cell_2_4 2)))
 (let (($x1920 (= cell_2_4 1)))
 (or $x1920 $x1494 $x377 $x1953 $x1154 $x478 $x3062 $x3193 $x1923)))))))))))
(assert
 (let (($x1434 (= cell_3_4 9)))
 (let (($x1700 (= cell_3_4 8)))
 (let (($x428 (= cell_3_4 7)))
 (let (($x2452 (= cell_3_4 6)))
 (let (($x957 (= cell_3_4 5)))
 (let (($x1474 (= cell_3_4 4)))
 (let (($x956 (= cell_3_4 3)))
 (let (($x2230 (= cell_3_4 2)))
 (let (($x909 (= cell_3_4 1)))
 (or $x909 $x2230 $x956 $x1474 $x957 $x2452 $x428 $x1700 $x1434)))))))))))
(assert
 (let (($x291 (= cell_4_4 2)))
 (or (= cell_4_4 1) $x291 (= cell_4_4 3) (= cell_4_4 4) (= cell_4_4 5) (= cell_4_4 6) (= cell_4_4 7) (= cell_4_4 8) (= cell_4_4 9))))
(assert
 (let (($x715 (= cell_5_4 9)))
 (let (($x806 (= cell_5_4 8)))
 (let (($x2581 (= cell_5_4 7)))
 (let (($x1693 (= cell_5_4 6)))
 (let (($x1578 (= cell_5_4 5)))
 (let (($x1235 (= cell_5_4 4)))
 (let (($x767 (= cell_5_4 3)))
 (let (($x254 (= cell_5_4 2)))
 (let (($x1002 (= cell_5_4 1)))
 (or $x1002 $x254 $x767 $x1235 $x1578 $x1693 $x2581 $x806 $x715)))))))))))
(assert
 (let (($x795 (= cell_6_4 9)))
 (let (($x3997 (= cell_6_4 8)))
 (let (($x2539 (= cell_6_4 7)))
 (let (($x896 (= cell_6_4 6)))
 (let (($x2343 (= cell_6_4 5)))
 (let (($x3207 (= cell_6_4 4)))
 (let (($x196 (= cell_6_4 3)))
 (let (($x2066 (= cell_6_4 2)))
 (let (($x2825 (= cell_6_4 1)))
 (or $x2825 $x2066 $x196 $x3207 $x2343 $x896 $x2539 $x3997 $x795)))))))))))
(assert
 (let (($x1687 (= cell_7_4 1)))
 (or $x1687 (= cell_7_4 2) (= cell_7_4 3) (= cell_7_4 4) (= cell_7_4 5) (= cell_7_4 6) (= cell_7_4 7) (= cell_7_4 8) (= cell_7_4 9))))
(assert
 (let (($x258 (= cell_8_4 2)))
 (let (($x2898 (= cell_8_4 1)))
 (or $x2898 $x258 (= cell_8_4 3) (= cell_8_4 4) (= cell_8_4 5) (= cell_8_4 6) (= cell_8_4 7) (= cell_8_4 8) (= cell_8_4 9)))))
(assert
 (let (($x2189 (= cell_9_4 9)))
 (let (($x8 (= cell_9_4 8)))
 (let (($x3715 (= cell_9_4 7)))
 (let (($x292 (= cell_9_4 6)))
 (let (($x1959 (= cell_9_4 5)))
 (let (($x2600 (= cell_9_4 4)))
 (let (($x2961 (= cell_9_4 3)))
 (let (($x2800 (= cell_9_4 2)))
 (let (($x798 (= cell_9_4 1)))
 (or $x798 $x2800 $x2961 $x2600 $x1959 $x292 $x3715 $x8 $x2189)))))))))))
(assert
 (let (($x2947 (= cell_1_5 9)))
 (let (($x1646 (= cell_1_5 8)))
 (let (($x989 (= cell_1_5 7)))
 (let (($x2788 (= cell_1_5 6)))
 (let (($x348 (= cell_1_5 5)))
 (let (($x2646 (= cell_1_5 4)))
 (let (($x2232 (= cell_1_5 3)))
 (let (($x1889 (= cell_1_5 2)))
 (let (($x207 (= cell_1_5 1)))
 (or $x207 $x1889 $x2232 $x2646 $x348 $x2788 $x989 $x1646 $x2947)))))))))))
(assert
 (let (($x2603 (= cell_2_5 9)))
 (let (($x1408 (= cell_2_5 8)))
 (let (($x2836 (= cell_2_5 7)))
 (let (($x2024 (= cell_2_5 6)))
 (let (($x511 (= cell_2_5 5)))
 (let (($x964 (= cell_2_5 4)))
 (let (($x1685 (= cell_2_5 3)))
 (let (($x2758 (= cell_2_5 2)))
 (let (($x2284 (= cell_2_5 1)))
 (or $x2284 $x2758 $x1685 $x964 $x511 $x2024 $x2836 $x1408 $x2603)))))))))))
(assert
 (let (($x740 (= cell_3_5 9)))
 (let (($x2653 (= cell_3_5 8)))
 (let (($x2512 (= cell_3_5 7)))
 (let (($x2717 (= cell_3_5 6)))
 (let (($x2200 (= cell_3_5 5)))
 (let (($x2461 (= cell_3_5 4)))
 (let (($x513 (= cell_3_5 3)))
 (let (($x2333 (= cell_3_5 2)))
 (let (($x1426 (= cell_3_5 1)))
 (or $x1426 $x2333 $x513 $x2461 $x2200 $x2717 $x2512 $x2653 $x740)))))))))))
(assert
 (let (($x2960 (= cell_4_5 1)))
 (or $x2960 (= cell_4_5 2) (= cell_4_5 3) (= cell_4_5 4) (= cell_4_5 5) (= cell_4_5 6) (= cell_4_5 7) (= cell_4_5 8) (= cell_4_5 9))))
(assert
 (let (($x911 (= cell_5_5 9)))
 (let (($x3128 (= cell_5_5 8)))
 (let (($x12 (= cell_5_5 7)))
 (let (($x1199 (= cell_5_5 6)))
 (let (($x296 (= cell_5_5 5)))
 (let (($x302 (= cell_5_5 4)))
 (let (($x1584 (= cell_5_5 3)))
 (let (($x653 (= cell_5_5 2)))
 (let (($x2279 (= cell_5_5 1)))
 (or $x2279 $x653 $x1584 $x302 $x296 $x1199 $x12 $x3128 $x911)))))))))))
(assert
 (let (($x754 (= cell_6_5 9)))
 (let (($x2263 (= cell_6_5 8)))
 (let (($x358 (= cell_6_5 7)))
 (let (($x2948 (= cell_6_5 6)))
 (let (($x374 (= cell_6_5 5)))
 (let (($x805 (= cell_6_5 4)))
 (let (($x2586 (= cell_6_5 3)))
 (let (($x89 (= cell_6_5 2)))
 (let (($x366 (= cell_6_5 1)))
 (or $x366 $x89 $x2586 $x805 $x374 $x2948 $x358 $x2263 $x754)))))))))))
(assert
 (let (($x1416 (= cell_7_5 1)))
 (or $x1416 (= cell_7_5 2) (= cell_7_5 3) (= cell_7_5 4) (= cell_7_5 5) (= cell_7_5 6) (= cell_7_5 7) (= cell_7_5 8) (= cell_7_5 9))))
(assert
 (let (($x2621 (= cell_8_5 1)))
 (or $x2621 (= cell_8_5 2) (= cell_8_5 3) (= cell_8_5 4) (= cell_8_5 5) (= cell_8_5 6) (= cell_8_5 7) (= cell_8_5 8) (= cell_8_5 9))))
(assert
 (let (($x372 (= cell_9_5 9)))
 (let (($x230 (= cell_9_5 8)))
 (let (($x415 (= cell_9_5 7)))
 (let (($x2841 (= cell_9_5 6)))
 (let (($x1188 (= cell_9_5 5)))
 (let (($x1014 (= cell_9_5 4)))
 (let (($x1386 (= cell_9_5 3)))
 (let (($x369 (= cell_9_5 2)))
 (let (($x2763 (= cell_9_5 1)))
 (or $x2763 $x369 $x1386 $x1014 $x1188 $x2841 $x415 $x230 $x372)))))))))))
(assert
 (let (($x305 (= cell_1_6 2)))
 (or (= cell_1_6 1) $x305 (= cell_1_6 3) (= cell_1_6 4) (= cell_1_6 5) (= cell_1_6 6) (= cell_1_6 7) (= cell_1_6 8) (= cell_1_6 9))))
(assert
 (let (($x1046 (= cell_2_6 1)))
 (or $x1046 (= cell_2_6 2) (= cell_2_6 3) (= cell_2_6 4) (= cell_2_6 5) (= cell_2_6 6) (= cell_2_6 7) (= cell_2_6 8) (= cell_2_6 9))))
(assert
 (let (($x2657 (= cell_3_6 9)))
 (let (($x1933 (= cell_3_6 8)))
 (let (($x339 (= cell_3_6 7)))
 (let (($x396 (= cell_3_6 6)))
 (let (($x744 (= cell_3_6 5)))
 (let (($x3000 (= cell_3_6 4)))
 (let (($x2114 (= cell_3_6 3)))
 (let (($x2554 (= cell_3_6 2)))
 (let (($x588 (= cell_3_6 1)))
 (or $x588 $x2554 $x2114 $x3000 $x744 $x396 $x339 $x1933 $x2657)))))))))))
(assert
 (let (($x1078 (= cell_4_6 2)))
 (let (($x1233 (= cell_4_6 1)))
 (or $x1233 $x1078 (= cell_4_6 3) (= cell_4_6 4) (= cell_4_6 5) (= cell_4_6 6) (= cell_4_6 7) (= cell_4_6 8) (= cell_4_6 9)))))
(assert
 (let (($x3116 (= cell_5_6 9)))
 (let (($x2897 (= cell_5_6 8)))
 (let (($x2026 (= cell_5_6 7)))
 (let (($x1756 (= cell_5_6 6)))
 (let (($x2666 (= cell_5_6 5)))
 (let (($x1163 (= cell_5_6 4)))
 (let (($x2379 (= cell_5_6 3)))
 (let (($x1182 (= cell_5_6 2)))
 (let (($x1943 (= cell_5_6 1)))
 (or $x1943 $x1182 $x2379 $x1163 $x2666 $x1756 $x2026 $x2897 $x3116)))))))))))
(assert
 (let (($x137 (= cell_6_6 2)))
 (let (($x1033 (= cell_6_6 1)))
 (or $x1033 $x137 (= cell_6_6 3) (= cell_6_6 4) (= cell_6_6 5) (= cell_6_6 6) (= cell_6_6 7) (= cell_6_6 8) (= cell_6_6 9)))))
(assert
 (let (($x154 (= cell_7_6 2)))
 (let (($x1214 (= cell_7_6 1)))
 (or $x1214 $x154 (= cell_7_6 3) (= cell_7_6 4) (= cell_7_6 5) (= cell_7_6 6) (= cell_7_6 7) (= cell_7_6 8) (= cell_7_6 9)))))
(assert
 (let (($x3043 (= cell_8_6 2)))
 (let (($x1406 (= cell_8_6 1)))
 (or $x1406 $x3043 (= cell_8_6 3) (= cell_8_6 4) (= cell_8_6 5) (= cell_8_6 6) (= cell_8_6 7) (= cell_8_6 8) (= cell_8_6 9)))))
(assert
 (let (($x2612 (= cell_9_6 9)))
 (let (($x27 (= cell_9_6 8)))
 (let (($x2183 (= cell_9_6 7)))
 (let (($x1128 (= cell_9_6 6)))
 (let (($x3102 (= cell_9_6 5)))
 (let (($x6 (= cell_9_6 4)))
 (let (($x1662 (= cell_9_6 3)))
 (let (($x1569 (= cell_9_6 2)))
 (let (($x557 (= cell_9_6 1)))
 (or $x557 $x1569 $x1662 $x6 $x3102 $x1128 $x2183 $x27 $x2612)))))))))))
(assert
 (let (($x1969 (= cell_1_7 9)))
 (let (($x1659 (= cell_1_7 8)))
 (let (($x2559 (= cell_1_7 7)))
 (let (($x2684 (= cell_1_7 6)))
 (let (($x2761 (= cell_1_7 5)))
 (let (($x1981 (= cell_1_7 4)))
 (let (($x2796 (= cell_1_7 3)))
 (let (($x1741 (= cell_1_7 2)))
 (let (($x52 (= cell_1_7 1)))
 (or $x52 $x1741 $x2796 $x1981 $x2761 $x2684 $x2559 $x1659 $x1969)))))))))))
(assert
 (let (($x2235 (= cell_2_7 9)))
 (let (($x1566 (= cell_2_7 8)))
 (let (($x1317 (= cell_2_7 7)))
 (let (($x2928 (= cell_2_7 6)))
 (let (($x1734 (= cell_2_7 5)))
 (let (($x1622 (= cell_2_7 4)))
 (let (($x605 (= cell_2_7 3)))
 (let (($x1422 (= cell_2_7 2)))
 (let (($x1689 (= cell_2_7 1)))
 (or $x1689 $x1422 $x605 $x1622 $x1734 $x2928 $x1317 $x1566 $x2235)))))))))))
(assert
 (let (($x2881 (= cell_3_7 9)))
 (let (($x1508 (= cell_3_7 8)))
 (let (($x1750 (= cell_3_7 7)))
 (let (($x2820 (= cell_3_7 6)))
 (let (($x2973 (= cell_3_7 5)))
 (let (($x2060 (= cell_3_7 4)))
 (let (($x1571 (= cell_3_7 3)))
 (let (($x2854 (= cell_3_7 2)))
 (let (($x2340 (= cell_3_7 1)))
 (or $x2340 $x2854 $x1571 $x2060 $x2973 $x2820 $x1750 $x1508 $x2881)))))))))))
(assert
 (let (($x1946 (= cell_4_7 9)))
 (let (($x1968 (= cell_4_7 8)))
 (let (($x793 (= cell_4_7 7)))
 (let (($x618 (= cell_4_7 6)))
 (let (($x1496 (= cell_4_7 5)))
 (let (($x2526 (= cell_4_7 4)))
 (let (($x3157 (= cell_4_7 3)))
 (let (($x2328 (= cell_4_7 2)))
 (let (($x1253 (= cell_4_7 1)))
 (or $x1253 $x2328 $x3157 $x2526 $x1496 $x618 $x793 $x1968 $x1946)))))))))))
(assert
 (let (($x1591 (= cell_5_7 9)))
 (let (($x74 (= cell_5_7 8)))
 (let (($x426 (= cell_5_7 7)))
 (let (($x2562 (= cell_5_7 6)))
 (let (($x2641 (= cell_5_7 5)))
 (let (($x606 (= cell_5_7 4)))
 (let (($x887 (= cell_5_7 3)))
 (let (($x2453 (= cell_5_7 2)))
 (let (($x57 (= cell_5_7 1)))
 (or $x57 $x2453 $x887 $x606 $x2641 $x2562 $x426 $x74 $x1591)))))))))))
(assert
 (let (($x2647 (= cell_6_7 9)))
 (let (($x459 (= cell_6_7 8)))
 (let (($x1512 (= cell_6_7 7)))
 (let (($x2121 (= cell_6_7 6)))
 (let (($x2525 (= cell_6_7 5)))
 (let (($x3153 (= cell_6_7 4)))
 (let (($x1383 (= cell_6_7 3)))
 (let (($x1743 (= cell_6_7 2)))
 (let (($x1141 (= cell_6_7 1)))
 (or $x1141 $x1743 $x1383 $x3153 $x2525 $x2121 $x1512 $x459 $x2647)))))))))))
(assert
 (let (($x1299 (= cell_7_7 9)))
 (let (($x1062 (= cell_7_7 8)))
 (let (($x3098 (= cell_7_7 7)))
 (let (($x2750 (= cell_7_7 6)))
 (let (($x1811 (= cell_7_7 5)))
 (let (($x1098 (= cell_7_7 4)))
 (let (($x3168 (= cell_7_7 3)))
 (let (($x1173 (= cell_7_7 2)))
 (let (($x657 (= cell_7_7 1)))
 (or $x657 $x1173 $x3168 $x1098 $x1811 $x2750 $x3098 $x1062 $x1299)))))))))))
(assert
 (let (($x2148 (= cell_8_7 9)))
 (let (($x3156 (= cell_8_7 8)))
 (let (($x2718 (= cell_8_7 7)))
 (let (($x1910 (= cell_8_7 6)))
 (let (($x2503 (= cell_8_7 5)))
 (let (($x1176 (= cell_8_7 4)))
 (let (($x1048 (= cell_8_7 3)))
 (let (($x1109 (= cell_8_7 2)))
 (let (($x1379 (= cell_8_7 1)))
 (or $x1379 $x1109 $x1048 $x1176 $x2503 $x1910 $x2718 $x3156 $x2148)))))))))))
(assert
 (let (($x1275 (= cell_9_7 1)))
 (or $x1275 (= cell_9_7 2) (= cell_9_7 3) (= cell_9_7 4) (= cell_9_7 5) (= cell_9_7 6) (= cell_9_7 7) (= cell_9_7 8) (= cell_9_7 9))))
(assert
 (let (($x2638 (= cell_1_8 9)))
 (let (($x1101 (= cell_1_8 8)))
 (let (($x751 (= cell_1_8 7)))
 (let (($x1675 (= cell_1_8 6)))
 (let (($x1747 (= cell_1_8 5)))
 (let (($x282 (= cell_1_8 4)))
 (let (($x1961 (= cell_1_8 3)))
 (let (($x2618 (= cell_1_8 2)))
 (let (($x1071 (= cell_1_8 1)))
 (or $x1071 $x2618 $x1961 $x282 $x1747 $x1675 $x751 $x1101 $x2638)))))))))))
(assert
 (let (($x1185 (= cell_2_8 2)))
 (or (= cell_2_8 1) $x1185 (= cell_2_8 3) (= cell_2_8 4) (= cell_2_8 5) (= cell_2_8 6) (= cell_2_8 7) (= cell_2_8 8) (= cell_2_8 9))))
(assert
 (let (($x1401 (= cell_3_8 9)))
 (let (($x2401 (= cell_3_8 8)))
 (let (($x3001 (= cell_3_8 7)))
 (let (($x1254 (= cell_3_8 6)))
 (let (($x2374 (= cell_3_8 5)))
 (let (($x1041 (= cell_3_8 4)))
 (let (($x1526 (= cell_3_8 3)))
 (let (($x2630 (= cell_3_8 2)))
 (let (($x1421 (= cell_3_8 1)))
 (or $x1421 $x2630 $x1526 $x1041 $x2374 $x1254 $x3001 $x2401 $x1401)))))))))))
(assert
 (let (($x2667 (= cell_4_8 9)))
 (let (($x1324 (= cell_4_8 8)))
 (let (($x1806 (= cell_4_8 7)))
 (let (($x2466 (= cell_4_8 6)))
 (let (($x988 (= cell_4_8 5)))
 (let (($x2492 (= cell_4_8 4)))
 (let (($x2676 (= cell_4_8 3)))
 (let (($x385 (= cell_4_8 2)))
 (let (($x1807 (= cell_4_8 1)))
 (or $x1807 $x385 $x2676 $x2492 $x988 $x2466 $x1806 $x1324 $x2667)))))))))))
(assert
 (let (($x216 (= cell_5_8 1)))
 (or $x216 (= cell_5_8 2) (= cell_5_8 3) (= cell_5_8 4) (= cell_5_8 5) (= cell_5_8 6) (= cell_5_8 7) (= cell_5_8 8) (= cell_5_8 9))))
(assert
 (let (($x978 (= cell_6_8 2)))
 (let (($x799 (= cell_6_8 1)))
 (or $x799 $x978 (= cell_6_8 3) (= cell_6_8 4) (= cell_6_8 5) (= cell_6_8 6) (= cell_6_8 7) (= cell_6_8 8) (= cell_6_8 9)))))
(assert
 (let (($x3004 (= cell_7_8 9)))
 (let (($x565 (= cell_7_8 8)))
 (let (($x1509 (= cell_7_8 7)))
 (let (($x3184 (= cell_7_8 6)))
 (let (($x2174 (= cell_7_8 5)))
 (let (($x50 (= cell_7_8 4)))
 (let (($x2373 (= cell_7_8 3)))
 (let (($x219 (= cell_7_8 2)))
 (let (($x2904 (= cell_7_8 1)))
 (or $x2904 $x219 $x2373 $x50 $x2174 $x3184 $x1509 $x565 $x3004)))))))))))
(assert
 (let (($x536 (= cell_8_8 9)))
 (let (($x647 (= cell_8_8 8)))
 (let (($x1740 (= cell_8_8 7)))
 (let (($x2250 (= cell_8_8 6)))
 (let (($x2132 (= cell_8_8 5)))
 (let (($x1854 (= cell_8_8 4)))
 (let (($x2313 (= cell_8_8 3)))
 (let (($x726 (= cell_8_8 2)))
 (let (($x2211 (= cell_8_8 1)))
 (or $x2211 $x726 $x2313 $x1854 $x2132 $x2250 $x1740 $x647 $x536)))))))))))
(assert
 (let (($x2321 (= cell_9_8 2)))
 (let (($x787 (= cell_9_8 1)))
 (or $x787 $x2321 (= cell_9_8 3) (= cell_9_8 4) (= cell_9_8 5) (= cell_9_8 6) (= cell_9_8 7) (= cell_9_8 8) (= cell_9_8 9)))))
(assert
 (let (($x571 (= cell_1_9 9)))
 (let (($x2154 (= cell_1_9 8)))
 (let (($x2027 (= cell_1_9 7)))
 (let (($x2375 (= cell_1_9 6)))
 (let (($x2198 (= cell_1_9 5)))
 (let (($x2289 (= cell_1_9 4)))
 (let (($x1418 (= cell_1_9 3)))
 (let (($x885 (= cell_1_9 2)))
 (let (($x1274 (= cell_1_9 1)))
 (or $x1274 $x885 $x1418 $x2289 $x2198 $x2375 $x2027 $x2154 $x571)))))))))))
(assert
 (let (($x537 (= cell_2_9 9)))
 (let (($x856 (= cell_2_9 8)))
 (let (($x306 (= cell_2_9 7)))
 (let (($x1480 (= cell_2_9 6)))
 (let (($x1531 (= cell_2_9 5)))
 (let (($x304 (= cell_2_9 4)))
 (let (($x1013 (= cell_2_9 3)))
 (let (($x629 (= cell_2_9 2)))
 (let (($x238 (= cell_2_9 1)))
 (or $x238 $x629 $x1013 $x304 $x1531 $x1480 $x306 $x856 $x537)))))))))))
(assert
 (let (($x2078 (= cell_3_9 1)))
 (or $x2078 (= cell_3_9 2) (= cell_3_9 3) (= cell_3_9 4) (= cell_3_9 5) (= cell_3_9 6) (= cell_3_9 7) (= cell_3_9 8) (= cell_3_9 9))))
(assert
 (let (($x1360 (= cell_4_9 9)))
 (let (($x31 (= cell_4_9 8)))
 (let (($x2958 (= cell_4_9 7)))
 (let (($x2071 (= cell_4_9 6)))
 (let (($x214 (= cell_4_9 5)))
 (let (($x1056 (= cell_4_9 4)))
 (let (($x3067 (= cell_4_9 3)))
 (let (($x1589 (= cell_4_9 2)))
 (let (($x1721 (= cell_4_9 1)))
 (or $x1721 $x1589 $x3067 $x1056 $x214 $x2071 $x2958 $x31 $x1360)))))))))))
(assert
 (let (($x150 (= cell_5_9 2)))
 (let (($x968 (= cell_5_9 1)))
 (or $x968 $x150 (= cell_5_9 3) (= cell_5_9 4) (= cell_5_9 5) (= cell_5_9 6) (= cell_5_9 7) (= cell_5_9 8) (= cell_5_9 9)))))
(assert
 (let (($x1535 (= cell_6_9 2)))
 (let (($x3088 (= cell_6_9 1)))
 (or $x3088 $x1535 (= cell_6_9 3) (= cell_6_9 4) (= cell_6_9 5) (= cell_6_9 6) (= cell_6_9 7) (= cell_6_9 8) (= cell_6_9 9)))))
(assert
 (let (($x881 (= cell_7_9 9)))
 (let (($x2084 (= cell_7_9 8)))
 (let (($x45 (= cell_7_9 7)))
 (let (($x804 (= cell_7_9 6)))
 (let (($x1988 (= cell_7_9 5)))
 (let (($x3172 (= cell_7_9 4)))
 (let (($x2708 (= cell_7_9 3)))
 (let (($x1768 (= cell_7_9 2)))
 (let (($x2342 (= cell_7_9 1)))
 (or $x2342 $x1768 $x2708 $x3172 $x1988 $x804 $x45 $x2084 $x881)))))))))))
(assert
 (let (($x3204 (= cell_8_9 9)))
 (let (($x354 (= cell_8_9 8)))
 (let (($x1375 (= cell_8_9 7)))
 (let (($x573 (= cell_8_9 6)))
 (let (($x1810 (= cell_8_9 5)))
 (let (($x409 (= cell_8_9 4)))
 (let (($x3028 (= cell_8_9 3)))
 (let (($x1836 (= cell_8_9 2)))
 (let (($x1870 (= cell_8_9 1)))
 (or $x1870 $x1836 $x3028 $x409 $x1810 $x573 $x1375 $x354 $x3204)))))))))))
(assert
 (let (($x499 (= cell_9_9 1)))
 (or $x499 (= cell_9_9 2) (= cell_9_9 3) (= cell_9_9 4) (= cell_9_9 5) (= cell_9_9 6) (= cell_9_9 7) (= cell_9_9 8) (= cell_9_9 9))))
(assert
 (and (distinct cell_1_1 cell_1_2 cell_1_3 cell_1_4 cell_1_5 cell_1_6 cell_1_7 cell_1_8 cell_1_9) true))
(assert
 (and (distinct cell_2_1 cell_2_2 cell_2_3 cell_2_4 cell_2_5 cell_2_6 cell_2_7 cell_2_8 cell_2_9) true))
(assert
 (and (distinct cell_3_1 cell_3_2 cell_3_3 cell_3_4 cell_3_5 cell_3_6 cell_3_7 cell_3_8 cell_3_9) true))
(assert
 (and (distinct cell_4_1 cell_4_2 cell_4_3 cell_4_4 cell_4_5 cell_4_6 cell_4_7 cell_4_8 cell_4_9) true))
(assert
 (and (distinct cell_5_1 cell_5_2 cell_5_3 cell_5_4 cell_5_5 cell_5_6 cell_5_7 cell_5_8 cell_5_9) true))
(assert
 (and (distinct cell_6_1 cell_6_2 cell_6_3 cell_6_4 cell_6_5 cell_6_6 cell_6_7 cell_6_8 cell_6_9) true))
(assert
 (and (distinct cell_7_1 cell_7_2 cell_7_3 cell_7_4 cell_7_5 cell_7_6 cell_7_7 cell_7_8 cell_7_9) true))
(assert
 (and (distinct cell_8_1 cell_8_2 cell_8_3 cell_8_4 cell_8_5 cell_8_6 cell_8_7 cell_8_8 cell_8_9) true))
(assert
 (and (distinct cell_9_1 cell_9_2 cell_9_3 cell_9_4 cell_9_5 cell_9_6 cell_9_7 cell_9_8 cell_9_9) true))
(assert
 (and (distinct cell_1_1 cell_2_1 cell_3_1 cell_4_1 cell_5_1 cell_6_1 cell_7_1 cell_8_1 cell_9_1) true))
(assert
 (and (distinct cell_1_2 cell_2_2 cell_3_2 cell_4_2 cell_5_2 cell_6_2 cell_7_2 cell_8_2 cell_9_2) true))
(assert
 (and (distinct cell_1_3 cell_2_3 cell_3_3 cell_4_3 cell_5_3 cell_6_3 cell_7_3 cell_8_3 cell_9_3) true))
(assert
 (and (distinct cell_1_4 cell_2_4 cell_3_4 cell_4_4 cell_5_4 cell_6_4 cell_7_4 cell_8_4 cell_9_4) true))
(assert
 (and (distinct cell_1_5 cell_2_5 cell_3_5 cell_4_5 cell_5_5 cell_6_5 cell_7_5 cell_8_5 cell_9_5) true))
(assert
 (and (distinct cell_1_6 cell_2_6 cell_3_6 cell_4_6 cell_5_6 cell_6_6 cell_7_6 cell_8_6 cell_9_6) true))
(assert
 (and (distinct cell_1_7 cell_2_7 cell_3_7 cell_4_7 cell_5_7 cell_6_7 cell_7_7 cell_8_7 cell_9_7) true))
(assert
 (and (distinct cell_1_8 cell_2_8 cell_3_8 cell_4_8 cell_5_8 cell_6_8 cell_7_8 cell_8_8 cell_9_8) true))
(assert
 (and (distinct cell_1_9 cell_2_9 cell_3_9 cell_4_9 cell_5_9 cell_6_9 cell_7_9 cell_8_9 cell_9_9) true))
(assert
 (and (distinct cell_1_1 cell_1_2 cell_1_3 cell_2_1 cell_2_2 cell_2_3 cell_3_1 cell_3_2 cell_3_3) true))
(assert
 (and (distinct cell_1_4 cell_1_5 cell_1_6 cell_2_4 cell_2_5 cell_2_6 cell_3_4 cell_3_5 cell_3_6) true))
(assert
 (and (distinct cell_1_7 cell_1_8 cell_1_9 cell_2_7 cell_2_8 cell_2_9 cell_3_7 cell_3_8 cell_3_9) true))
(assert
 (and (distinct cell_4_1 cell_4_2 cell_4_3 cell_5_1 cell_5_2 cell_5_3 cell_6_1 cell_6_2 cell_6_3) true))
(assert
 (and (distinct cell_4_4 cell_4_5 cell_4_6 cell_5_4 cell_5_5 cell_5_6 cell_6_4 cell_6_5 cell_6_6) true))
(assert
 (and (distinct cell_4_7 cell_4_8 cell_4_9 cell_5_7 cell_5_8 cell_5_9 cell_6_7 cell_6_8 cell_6_9) true))
(assert
 (and (distinct cell_7_1 cell_7_2 cell_7_3 cell_8_1 cell_8_2 cell_8_3 cell_9_1 cell_9_2 cell_9_3) true))
(assert
 (and (distinct cell_7_4 cell_7_5 cell_7_6 cell_8_4 cell_8_5 cell_8_6 cell_9_4 cell_9_5 cell_9_6) true))
(assert
 (and (distinct cell_7_7 cell_7_8 cell_7_9 cell_8_7 cell_8_8 cell_8_9 cell_9_7 cell_9_8 cell_9_9) true))
(assert
 (let (($x343 (and (distinct cell_5_9 cell_6_8 cell_7_7 cell_8_6) true)))
 (let (($x2670 (and (distinct cell_2_9 cell_3_8 cell_4_7 cell_5_6 cell_6_5 cell_7_4 cell_8_3 cell_9_2) true)))
 (let (($x1906 (and (distinct cell_1_8 cell_2_7 cell_3_6 cell_4_5 cell_5_4 cell_6_3 cell_7_2 cell_8_1) true)))
 (let (($x1678 (and (distinct cell_1_5 cell_2_4 cell_3_3 cell_4_2) true)))
 (let (($x2023 (and (distinct cell_5_1 cell_6_2 cell_7_3 cell_8_4) true)))
 (let (($x913 (and (distinct cell_2_1 cell_3_2 cell_4_3 cell_5_4 cell_6_5 cell_7_6 cell_8_7 cell_9_8) true)))
 (let (($x1223 (and (distinct cell_1_2 cell_2_3 cell_3_4 cell_4_5 cell_5_6 cell_6_7 cell_7_8 cell_8_9) true)))
 (let (($x3159 (and (distinct cell_1_5 cell_2_6 cell_3_7 cell_4_8) true)))
 (and $x3159 $x1223 $x913 $x2023 $x1678 $x1906 $x2670 $x343))))))))))
(assert
 (= cell_6_9 2))
(check-sat)
